
  32    1
  10

   0   0   7 2 3 4 7 9 10 11 
   4   4   3 13 12 5 
   3   4   8 31 20 16 15 14 13 12 8 
   4  10   6 20 16 15 14 12 8 
   4   7   2 20 6 
   4   8   5 30 29 19 15 14 
   6   7   4 30 29 19 14 
   2   6   5 30 29 24 18 17 
   7  10   4 31 29 24 16 
   3  10   5 31 29 24 21 17 
   8   9   5 30 29 27 21 19 
   3   9   3 24 21 17 
   9   9   6 30 29 27 24 23 22 
   7   9   3 28 23 18 
  10  10   3 24 22 17 
   5  10   2 21 17 
   2  10   4 28 27 26 23 
   7  10   2 27 21 
   7  10   3 31 26 24 
   5   6   3 30 29 26 
   7   7   1 22 
   3   3   2 26 25 
   7   9   1 25 
   9   5   1 25 
   2  10   1 32
   6   5   1 32
   6   7   1 32
   9  10   1 32
   1  10   1 32
   7  10   1 32
   7   6   1 32
   0   0   0 
